% File represents an instance of a Composite Structure problem to be solved by a CP framework
% Created on 2025-03-26 10:41:23.841
T = 58;
n = 16;
m = 24;
edges = [(2, 1),
(6, 5),
(9, 10),
(13, 14),
(2, 3),
(7, 6),
(11, 10),
(15, 14),
(3, 4),
(7, 8),
(12, 11),
(16, 15),
(1, 5),
(5, 9),
(13, 9),
(2, 6),
(6, 10),
(14, 10),
(7, 3),
(7, 11),
(15, 11),
(8, 4),
(12, 8),
(16, 12)];
counts = [|2, 26, 2, 22,
|2, 26, 2, 24,
|2, 22, 2, 24,
|2, 22, 2, 22,
|2, 24, 2, 22,
|2, 26, 2, 22,
|2, 26, 2, 26,
|2, 22, 2, 26,
|2, 24, 2, 20,
|2, 22, 2, 20,
|2, 24, 2, 22,
|2, 26, 2, 26,
|2, 26, 2, 24,
|2, 26, 2, 22,
|2, 26, 2, 24,
|2, 28, 2, 26|];
